NAME : mar30_1000_3
COMMENT : Data set with 30 points
COMMENT : CIn-UFPE
COMMENT : Contributed by Marcelo Lacerda
TYPE : TSP
DIMENSION : 30
EDGE_WEIGHT_TYPE : EUC_2D
NODE_COORD_SECTION
1 913 71
2 131 447
3 980 274
4 400 78
5 289 462
6 90 407
7 718 134
8 473 730
9 430 422
10 834 482
11 487 577
12 372 797
13 719 907
14 770 493
15 917 744
16 400 942
17 761 319
18 601 969
19 539 94
20 379 271
21 152 259
22 278 929
23 364 233
24 956 393
25 718 228
26 644 87
27 9 501
28 709 640
29 750 533
30 815 75
EOF
